************************************************************************
file with basedata            : n/a
initial value random generator: n/a
************************************************************************
projects                      :  1
jobs (incl. supersource/sink ):  32
horizon                       :  151
RESOURCES
  - renewable                 :  4   R
  - nonrenewable              :  0   N
  - doubly constrained        :  0   D
************************************************************************
PROJECT INFORMATION:
pronr.  #jobs rel.date duedate tardcost  MPM-Time
    1     30      0       45       24       45
************************************************************************
PRECEDENCE RELATIONS:
jobnr.    #modes  #successors   successors
   1        1          3           2   3   4
   2        1          3           5   7   8
   3        1          3          14  15  21
   4        1          3          13  15  25
   5        1          3           6  11  17
   6        1          3          12  13  20
   7        1          3           9  11  15
   8        1          3           9  10  17
   9        1          2          22  25
  10        1          1          16
  11        1          3          12  23  25
  12        1          2          18  28
  13        1          2          16  19
  14        1          3          18  20  22
  15        1          3          19  20  22
  16        1          3          21  23  31
  17        1          3          19  21  29
  18        1          2          24  27
  19        1          3          26  27  30
  20        1          2          23  24
  21        1          1          30
  22        1          2          24  27
  23        1          1          28
  24        1          2          26  29
  25        1          3          26  28  29
  26        1          1          31
  27        1          1          31
  28        1          1          30
  29        1          1          32
  30        1          1          32
  31        1          1          32
  32        1          0        
************************************************************************
REQUESTS/DURATIONS:
jobnr. mode duration  R 1  R 2  R 3  R 4
------------------------------------------------------------------------
  1      1     0    
  2      1     2       6   6
                       8   8
                       6   6
                       9   9
  3      1     4       9   9   9   9
                       9   9   9   9
                      10  10  10  10
                       8   8   8   8
  4      1     3       9   9   9
                       4   4   4
                       8   8   8
                       8   8   8
  5      1     9       6   6   6   6   6   6   6   6   6
                       7   7   7   7   7   7   7   7   7
                       3   3   3   3   3   3   3   3   3
                       8   8   8   8   8   8   8   8   8
  6      1     6       4   4   4   4   4   4
                       5   5   5   5   5   5
                       7   7   7   7   7   7
                       8   8   8   8   8   8
  7      1     6       1   1   1   1   1   1
                       8   8   8   8   8   8
                       1   1   1   1   1   1
                       2   2   2   2   2   2
  8      1     3       5   5   5
                       8   8   8
                       2   2   2
                       9   9   9
  9      1     5       2   2   2   2   1
                       8   8   8   8   4
                       7   7   7   7   4
                       5   5   5   5   3
 10      1    10       8   8   8   8   8   8   8   8   8   8
                       9   9   9   9   9   9   9   9   9   9
                      10  10  10  10  10  10  10  10  10  10
                       4   4   4   4   4   4   4   4   4   4
 11      1     6       5   5   3   5   5   5
                      10  10   5  10  10  10
                       4   4   2   4   4   4
                       5   5   3   5   5   5
 12      1     4       4   4   4   4
                       9   9   9   9
                       4   4   4   4
                      10  10  10  10
 13      1     4       1   1   1   1
                       6   6   6   6
                       1   1   1   1
                       9   9   9   9
 14      1     1       3
                       3
                       4
                       2
 15      1     2       4   4
                       2   2
                       9   9
                       1   1
 16      1     9       3   3   3   3   3   3   3   3   3
                      10  10  10  10  10  10  10  10  10
                       8   8   8   8   8   8   8   8   8
                       4   4   4   4   4   4   4   4   4
 17      1     5       7   7   7   7   7
                       9   9   9   9   9
                      10  10  10  10  10
                       8   8   8   8   8
 18      1     3      10  10  10
                       6   6   6
                       1   1   1
                       6   6   6
 19      1     8       1   1   1   1   1   1   1   1
                       8   8   8   8   8   8   8   8
                       3   3   3   3   3   3   3   3
                       6   6   6   6   6   6   6   6
 20      1     8       3   3   3   3   3   3   3   2
                      10  10  10  10  10  10  10   5
                       7   7   7   7   7   7   7   4
                       7   7   7   7   7   7   7   4
 21      1     7       2   2   2   2   2   2   2
                       5   5   5   5   5   5   5
                       5   5   5   5   5   5   5
                      10  10  10  10  10  10  10
 22      1     9       9   9   9   9   9   5   9   9   9
                       9   9   9   9   9   5   9   9   9
                       9   9   9   9   9   5   9   9   9
                       9   9   9   9   9   5   9   9   9
 23      1     4       1   1   1   1
                       9   9   9   9
                       4   4   4   4
                       1   1   1   1
 24      1     5       9   9   9   9   9
                       1   1   1   1   1
                       5   5   5   5   5
                       7   7   7   7   7
 25      1     2       2   2
                       3   3
                       6   6
                      10  10
 26      1     1       4
                       9
                       2
                       1
 27      1     6       6   6   6   6   6   3
                       4   4   4   4   4   2
                       4   4   4   4   4   2
                       2   2   2   2   2   1
 28      1     9       3   3   2   3   3   3   3   3   3
                       5   5   3   5   5   5   5   5   5
                       1   1   1   1   1   1   1   1   1
                       2   2   1   2   2   2   2   2   2
 29      1     2       3   3
                       8   8
                      10  10
                       8   8
 30      1     2       1   1
                       2   2
                       1   1
                       1   1
 31      1     6       2   1   2   2   1   2
                       7   4   7   7   4   7
                       9   5   9   9   5   9
                       2   1   2   2   1   2
 32      1     0    
************************************************************************
RESOURCEAVAILABILITIES:
  R 1  R 2  R 3  R 4

  22  22  22  22  22  22  22  22  22  22  22  22  22  11  22  22  22  22  22  22  22  22  22  22  22  22  22  22  22  22  22  22  22  11  22  22  22  22  22  22  22  22  22  22  22  22  22  11  22  22  22  22  22  22  22  22  22  22  22  22  22  22  22  22  22  22  22  22  11  22  22  22  22  22  22  22  22  22  22  22  22  22  11  22  22  22  22  22  22  22  22  22  22  22  22  22  22  22  22  22  22  22  22  22  22  22  22  22  22  22  22  22  22  22  22  11  22  22  22  22  22  22  22  22  22  22  22  22  22  22  22  22  22  22  22  22  22  22  22  22  22  22  22  22  22  11  22  22  22  22  22

  27  27  27  27  27  27  27  27  27  27  27  27  27  14  27  27  27  27  27  27  27  27  27  27  27  27  27  27  27  27  27  27  27  14  27  27  27  27  27  27  27  27  27  27  27  27  27  14  27  27  27  27  27  27  27  27  27  27  27  27  27  27  27  27  27  27  27  27  14  27  27  27  27  27  27  27  27  27  27  27  27  27  14  27  27  27  27  27  27  27  27  27  27  27  27  27  27  27  27  27  27  27  27  27  27  27  27  27  27  27  27  27  27  27  27  14  27  27  27  27  27  27  27  27  27  27  27  27  27  27  27  27  27  27  27  27  27  27  27  27  27  27  27  27  27  14  27  27  27  27  27

  25  25  25  25  25  25  25  25  25  25  25  25  25  13  25  25  25  25  25  25  25  25  25  25  25  25  25  25  25  25  25  25  25  13  25  25  25  25  25  25  25  25  25  25  25  25  25  13  25  25  25  25  25  25  25  25  25  25  25  25  25  25  25  25  25  25  25  25  13  25  25  25  25  25  25  25  25  25  25  25  25  25  13  25  25  25  25  25  25  25  25  25  25  25  25  25  25  25  25  25  25  25  25  25  25  25  25  25  25  25  25  25  25  25  25  13  25  25  25  25  25  25  25  25  25  25  25  25  25  25  25  25  25  25  25  25  25  25  25  25  25  25  25  25  25  13  25  25  25  25  25

  28  28  28  28  28  28  28  28  28  28  28  28  28  14  28  28  28  28  28  28  28  28  28  28  28  28  28  28  28  28  28  28  28  14  28  28  28  28  28  28  28  28  28  28  28  28  28  14  28  28  28  28  28  28  28  28  28  28  28  28  28  28  28  28  28  28  28  28  14  28  28  28  28  28  28  28  28  28  28  28  28  28  14  28  28  28  28  28  28  28  28  28  28  28  28  28  28  28  28  28  28  28  28  28  28  28  28  28  28  28  28  28  28  28  28  14  28  28  28  28  28  28  28  28  28  28  28  28  28  28  28  28  28  28  28  28  28  28  28  28  28  28  28  28  28  14  28  28  28  28  28

************************************************************************
